NAME: burma14
TYPE: TSP
COMMENT: 14-Staedte in Burma (Zaw Win)
DIMENSION: 4
EDGE_WEIGHT_TYPE: EUC_2D
EDGE_WEIGHT_FORMAT: FUNCTION 
DISPLAY_DATA_TYPE: COORD_DISPLAY
NODE_COORD_SECTION
   1  0       1
   2  2       2
   3  0       0
   4  1       0
EOF
